(set-logic QF_UF)
(declare-sort U 0)
(declare-sort I 0)
(declare-fun op1 (I I) I)
(declare-fun op (I I) I)
(declare-fun e4 () I)
(declare-fun e3 () I)
(declare-fun e2 () I)
(declare-fun e1 () I)
(declare-fun e0 () I)
(assert (not (not (= (op e1 e3) (op (op (op e1 e3) e3) e1)))))
(assert (not (not (= e1 (op (op (op e1 e3) e3) (op (op (op e1 e3) e3) e1))))))
(assert (not (= e1 (op (op (op e1 e3) e3) (op e1 e3)))))
(assert (or (and (= (op e1 e3) (op (op (op e1 e3) e3) e1)) (= e1 (op (op (op e1 e3) e3) (op (op (op e1 e3) e3) e1)))) (not (= (op e1 e3) (op (op (op e1 e3) e3) e1))) (not (= e1 (op (op (op e1 e3) e3) (op (op (op e1 e3) e3) e1))))))
(assert (or (not (and (= (op e1 e3) (op (op (op e1 e3) e3) e1)) (= e1 (op (op (op e1 e3) e3) (op (op (op e1 e3) e3) e1))))) (= e1 (op (op (op e1 e3) e3) (op e1 e3)))))
(check-sat)
(exit)
